NAME : 0
COMMENT : Generated instance No. 0
TYPE : CVRP
DIMENSION : 21
EDGE_WEIGHT_TYPE : EUC_2D
CAPACITY : 25
NODE_COORD_SECTION
 1 500 500
 2 969 775
 3 939 894
 4 597 921
 5 88 195
 6 45 325
 7 388 271
 8 828 356
 9 280 542
 10 140 802
 11 74 986
 12 772 198
 13 5 815
 14 706 729
 15 771 74
 16 358 115
 17 863 623
 18 330 63
 19 310 325
 20 729 637
 21 887 472
DEMAND_SECTION
1 0
2 5
3 7
4 6
5 3
6 1
7 5
8 2
9 7
10 7
11 6
12 7
13 3
14 1
15 7
16 7
17 2
18 2
19 4
20 5
21 3
DEPOT_SECTION
 1
 -1
EOF